c   nvars nclauses
p cnf 4 4
15 13 0
1 13 0
17 13 0
4 13 0
-15 -1 -17 -4 -13 0
13 0
-21 -14 0
-20 -14 0
-19 -14 0
-18 -14 0
21 20 19 18 14 0
14 0
5 -21 0
17 -21 0
1 -21 0
15 -21 0
-5 -17 -1 -15 21 0
24 -20 0
1 -20 0
15 -20 0
-24 -1 -15 20 0
23 -19 0
15 -19 0
-23 -15 19 0
22 -18 0
-22 18 0
-6 -5 0
-7 -5 0
-8 -5 0
6 7 8 5 0
-9 -4 0
-10 -4 0
9 10 4 0
27 -6 0
-27 6 0
28 -7 0
35 -7 0
-28 -35 7 0
36 -8 0
11 -8 0
-36 -11 8 0
11 -9 0
37 -9 0
27 -9 0
-11 -37 -27 9 0
27 -10 0
28 -10 0
38 -10 0
-27 -28 -38 10 0
29 -42 0
-29 42 0
-42 -24 0
-43 -24 0
-44 -24 0
42 43 44 24 0
30 -43 0
35 -43 0
-30 -35 43 0
36 -44 0
39 -44 0
-36 -39 44 0
45 17 0
46 17 0
-45 -46 -17 0
39 -45 0
37 -45 0
29 -45 0
-39 -37 -29 45 0
29 -46 0
38 -46 0
30 -46 0
-29 -38 -30 46 0
47 48 49 23 0
-47 -23 0
-48 -23 0
-49 -23 0
31 -47 0
-31 47 0
32 -48 0
35 -48 0
-32 -35 48 0
36 -49 0
40 -49 0
-40 -36 49 0
50 1 0
51 1 0
-50 -51 -1 0
40 -50 0
37 -50 0
31 -50 0
-40 -37 -31 50 0
31 -51 0
38 -51 0
32 -51 0
-31 -38 -32 51 0
-52 -22 0
-53 -22 0
-54 -22 0
52 53 54 22 0
33 -52 0
-33 52 0
34 -53 0
35 -53 0
-34 -35 53 0
36 -54 0
41 -54 0
-36 -41 54 0
-55 -15 0
-56 -15 0
55 56 15 0
41 -55 0
37 -55 0
33 -55 0
-41 -37 -33 55 0
33 -56 0
38 -56 0
34 -56 0
-33 -38 -34 56 0
28 11 0
-28 -11 0
30 39 0
-30 -39 0
32 40 0
-32 -40 0
34 41 0
-34 -41 0